NAME: 840.vrp-C169-R5
TYPE: SoftCluVRP
DIMENSION:  841 
VEHICLES:  86 
GVRP_SETS:  169 
CAPACITY:  900 
EDGE_WEIGHT_TYPE: EUC_2D
NODE_COORD_SECTION 
1 0.000000 0.000000
2 30.000000 0.000000
3 29.916100 2.241900
4 29.664900 4.471300
5 29.247801 6.675600
6 28.667200 8.842700
7 27.926201 10.960200
8 27.029100 13.016500
9 25.980801 15.000000
10 24.787201 16.899599
11 23.454901 18.704700
12 21.991600 20.405199
13 20.405199 21.991600
14 18.704700 23.454901
15 16.899599 24.787201
16 15.000000 25.980801
17 13.016500 27.029100
18 10.960200 27.926201
19 8.842700 28.667200
20 6.675600 29.247801
21 4.471300 29.664900
22 2.241900 29.916100
23 0.000000 30.000000
24 -2.241900 29.916100
25 -4.471300 29.664900
26 -6.675600 29.247801
27 -8.842700 28.667200
28 -10.960200 27.926201
29 -13.016500 27.029100
30 -15.000000 25.980801
31 -16.899599 24.787201
32 -18.704700 23.454901
33 -20.405199 21.991600
34 -21.991600 20.405199
35 -23.454901 18.704700
36 -24.787201 16.899599
37 -25.980801 15.000000
38 -27.029100 13.016500
39 -27.926201 10.960200
40 -28.667200 8.842700
41 -29.247801 6.675600
42 -29.664900 4.471300
43 -29.916100 2.241900
44 -30.000000 0.000000
45 -29.916100 -2.241900
46 -29.664900 -4.471300
47 -29.247801 -6.675600
48 -28.667200 -8.842700
49 -27.926201 -10.960200
50 -27.029100 -13.016500
51 -25.980801 -15.000000
52 -24.787201 -16.899599
53 -23.454901 -18.704700
54 -21.991600 -20.405199
55 -20.405199 -21.991600
56 -18.704700 -23.454901
57 -16.899599 -24.787201
58 -15.000000 -25.980801
59 -13.016500 -27.029100
60 -10.960200 -27.926201
61 -8.842700 -28.667200
62 -6.675600 -29.247801
63 -4.471300 -29.664900
64 -2.241900 -29.916100
65 -0.000000 -30.000000
66 2.241900 -29.916100
67 4.471300 -29.664900
68 6.675600 -29.247801
69 8.842700 -28.667200
70 10.960200 -27.926201
71 13.016500 -27.029100
72 15.000000 -25.980801
73 16.899599 -24.787201
74 18.704700 -23.454901
75 20.405199 -21.991600
76 21.991600 -20.405199
77 23.454901 -18.704700
78 24.787201 -16.899599
79 25.980801 -15.000000
80 27.029100 -13.016500
81 27.926201 -10.960200
82 28.667200 -8.842700
83 29.247801 -6.675600
84 29.664900 -4.471300
85 29.916100 -2.241900
86 60.000000 0.000000
87 59.832199 4.483800
88 59.329800 8.942500
89 58.495701 13.351300
90 57.334400 17.685301
91 55.852402 21.920500
92 54.058102 26.033001
93 51.961498 30.000000
94 49.574299 33.799198
95 46.909901 37.409401
96 43.983101 40.810398
97 40.810398 43.983101
98 37.409401 46.909901
99 33.799198 49.574299
100 30.000000 51.961498
101 26.033001 54.058102
102 21.920500 55.852402
103 17.685301 57.334400
104 13.351300 58.495701
105 8.942500 59.329800
106 4.483800 59.832199
107 0.000000 60.000000
108 -4.483800 59.832199
109 -8.942500 59.329800
110 -13.351300 58.495701
111 -17.685301 57.334400
112 -21.920500 55.852402
113 -26.033001 54.058102
114 -30.000000 51.961498
115 -33.799198 49.574299
116 -37.409401 46.909901
117 -40.810398 43.983101
118 -43.983101 40.810398
119 -46.909901 37.409401
120 -49.574299 33.799198
121 -51.961498 30.000000
122 -54.058102 26.033001
123 -55.852402 21.920500
124 -57.334400 17.685301
125 -58.495701 13.351300
126 -59.329800 8.942500
127 -59.832199 4.483800
128 -60.000000 0.000000
129 -59.832199 -4.483800
130 -59.329800 -8.942500
131 -58.495701 -13.351300
132 -57.334400 -17.685301
133 -55.852402 -21.920500
134 -54.058102 -26.033001
135 -51.961498 -30.000000
136 -49.574299 -33.799198
137 -46.909901 -37.409401
138 -43.983101 -40.810398
139 -40.810398 -43.983101
140 -37.409401 -46.909901
141 -33.799198 -49.574299
142 -30.000000 -51.961498
143 -26.033001 -54.058102
144 -21.920500 -55.852402
145 -17.685301 -57.334400
146 -13.351300 -58.495701
147 -8.942500 -59.329800
148 -4.483800 -59.832199
149 -0.000000 -60.000000
150 4.483800 -59.832199
151 8.942500 -59.329800
152 13.351300 -58.495701
153 17.685301 -57.334400
154 21.920500 -55.852402
155 26.033001 -54.058102
156 30.000000 -51.961498
157 33.799198 -49.574299
158 37.409401 -46.909901
159 40.810398 -43.983101
160 43.983101 -40.810398
161 46.909901 -37.409401
162 49.574299 -33.799198
163 51.961498 -30.000000
164 54.058102 -26.033001
165 55.852402 -21.920500
166 57.334400 -17.685301
167 58.495701 -13.351300
168 59.329800 -8.942500
169 59.832199 -4.483800
170 90.000000 0.000000
171 89.748299 6.725700
172 88.994797 13.413800
173 87.743500 20.026899
174 86.001602 26.528000
175 83.778603 32.880699
176 81.087196 39.049500
177 77.942299 45.000000
178 74.361504 50.698799
179 70.364799 56.114101
180 65.974701 61.215500
181 61.215500 65.974701
182 56.114101 70.364799
183 50.698799 74.361504
184 45.000000 77.942299
185 39.049500 81.087196
186 32.880699 83.778603
187 26.528000 86.001602
188 20.026899 87.743500
189 13.413800 88.994797
190 6.725700 89.748299
191 0.000000 90.000000
192 -6.725700 89.748299
193 -13.413800 88.994797
194 -20.026899 87.743500
195 -26.528000 86.001602
196 -32.880699 83.778603
197 -39.049500 81.087196
198 -45.000000 77.942299
199 -50.698799 74.361504
200 -56.114101 70.364799
201 -61.215500 65.974701
202 -65.974701 61.215500
203 -70.364799 56.114101
204 -74.361504 50.698799
205 -77.942299 45.000000
206 -81.087196 39.049500
207 -83.778603 32.880699
208 -86.001602 26.528000
209 -87.743500 20.026899
210 -88.994797 13.413800
211 -89.748299 6.725700
212 -90.000000 0.000000
213 -89.748299 -6.725700
214 -88.994797 -13.413800
215 -87.743500 -20.026899
216 -86.001602 -26.528000
217 -83.778603 -32.880699
218 -81.087196 -39.049500
219 -77.942299 -45.000000
220 -74.361504 -50.698799
221 -70.364799 -56.114101
222 -65.974701 -61.215500
223 -61.215500 -65.974701
224 -56.114101 -70.364799
225 -50.698799 -74.361504
226 -45.000000 -77.942299
227 -39.049500 -81.087196
228 -32.880699 -83.778603
229 -26.528000 -86.001602
230 -20.026899 -87.743500
231 -13.413800 -88.994797
232 -6.725700 -89.748299
233 -0.000000 -90.000000
234 6.725700 -89.748299
235 13.413800 -88.994797
236 20.026899 -87.743500
237 26.528000 -86.001602
238 32.880699 -83.778603
239 39.049500 -81.087196
240 45.000000 -77.942299
241 50.698799 -74.361504
242 56.114101 -70.364799
243 61.215500 -65.974701
244 65.974701 -61.215500
245 70.364799 -56.114101
246 74.361504 -50.698799
247 77.942299 -45.000000
248 81.087196 -39.049500
249 83.778603 -32.880699
250 86.001602 -26.528000
251 87.743500 -20.026899
252 88.994797 -13.413800
253 89.748299 -6.725700
254 120.000000 0.000000
255 119.664497 8.967600
256 118.659698 17.885099
257 116.991302 26.702499
258 114.668701 35.370602
259 111.704803 43.840900
260 108.116302 52.066002
261 103.922997 60.000000
262 99.148697 67.598396
263 93.819801 74.818802
264 87.966202 81.620697
265 81.620697 87.966202
266 74.818802 93.819801
267 67.598396 99.148697
268 60.000000 103.922997
269 52.066002 108.116302
270 43.840900 111.704803
271 35.370602 114.668701
272 26.702499 116.991302
273 17.885099 118.659698
274 8.967600 119.664497
275 0.000000 120.000000
276 -8.967600 119.664497
277 -17.885099 118.659698
278 -26.702499 116.991302
279 -35.370602 114.668701
280 -43.840900 111.704803
281 -52.066002 108.116302
282 -60.000000 103.922997
283 -67.598396 99.148697
284 -74.818802 93.819801
285 -81.620697 87.966202
286 -87.966202 81.620697
287 -93.819801 74.818802
288 -99.148697 67.598396
289 -103.922997 60.000000
290 -108.116302 52.066002
291 -111.704803 43.840900
292 -114.668701 35.370602
293 -116.991302 26.702499
294 -118.659698 17.885099
295 -119.664497 8.967600
296 -120.000000 0.000000
297 -119.664497 -8.967600
298 -118.659698 -17.885099
299 -116.991302 -26.702499
300 -114.668701 -35.370602
301 -111.704803 -43.840900
302 -108.116302 -52.066002
303 -103.922997 -60.000000
304 -99.148697 -67.598396
305 -93.819801 -74.818802
306 -87.966202 -81.620697
307 -81.620697 -87.966202
308 -74.818802 -93.819801
309 -67.598396 -99.148697
310 -60.000000 -103.922997
311 -52.066002 -108.116302
312 -43.840900 -111.704803
313 -35.370602 -114.668701
314 -26.702499 -116.991302
315 -17.885099 -118.659698
316 -8.967600 -119.664497
317 -0.000000 -120.000000
318 8.967600 -119.664497
319 17.885099 -118.659698
320 26.702499 -116.991302
321 35.370602 -114.668701
322 43.840900 -111.704803
323 52.066002 -108.116302
324 60.000000 -103.922997
325 67.598396 -99.148697
326 74.818802 -93.819801
327 81.620697 -87.966202
328 87.966202 -81.620697
329 93.819801 -74.818802
330 99.148697 -67.598396
331 103.922997 -60.000000
332 108.116302 -52.066002
333 111.704803 -43.840900
334 114.668701 -35.370602
335 116.991302 -26.702499
336 118.659698 -17.885099
337 119.664497 -8.967600
338 150.000000 0.000000
339 149.580597 11.209500
340 148.324600 22.356300
341 146.239197 33.378101
342 143.335907 44.213299
343 139.631104 54.801201
344 135.145294 65.082603
345 129.903793 75.000000
346 123.935799 84.498001
347 117.274696 93.523499
348 109.957802 102.025902
349 102.025902 109.957802
350 93.523499 117.274696
351 84.498001 123.935799
352 75.000000 129.903793
353 65.082603 135.145294
354 54.801201 139.631104
355 44.213299 143.335907
356 33.378101 146.239197
357 22.356300 148.324600
358 11.209500 149.580597
359 0.000000 150.000000
360 -11.209500 149.580597
361 -22.356300 148.324600
362 -33.378101 146.239197
363 -44.213299 143.335907
364 -54.801201 139.631104
365 -65.082603 135.145294
366 -75.000000 129.903793
367 -84.498001 123.935799
368 -93.523499 117.274696
369 -102.025902 109.957802
370 -109.957802 102.025902
371 -117.274696 93.523499
372 -123.935799 84.498001
373 -129.903793 75.000000
374 -135.145294 65.082603
375 -139.631104 54.801201
376 -143.335907 44.213299
377 -146.239197 33.378101
378 -148.324600 22.356300
379 -149.580597 11.209500
380 -150.000000 0.000000
381 -149.580597 -11.209500
382 -148.324600 -22.356300
383 -146.239197 -33.378101
384 -143.335907 -44.213299
385 -139.631104 -54.801201
386 -135.145294 -65.082603
387 -129.903793 -75.000000
388 -123.935799 -84.498001
389 -117.274696 -93.523499
390 -109.957802 -102.025902
391 -102.025902 -109.957802
392 -93.523499 -117.274696
393 -84.498001 -123.935799
394 -75.000000 -129.903793
395 -65.082603 -135.145294
396 -54.801201 -139.631104
397 -44.213299 -143.335907
398 -33.378101 -146.239197
399 -22.356300 -148.324600
400 -11.209500 -149.580597
401 -0.000000 -150.000000
402 11.209500 -149.580597
403 22.356300 -148.324600
404 33.378101 -146.239197
405 44.213299 -143.335907
406 54.801201 -139.631104
407 65.082603 -135.145294
408 75.000000 -129.903793
409 84.498001 -123.935799
410 93.523499 -117.274696
411 102.025902 -109.957802
412 109.957802 -102.025902
413 117.274696 -93.523499
414 123.935799 -84.498001
415 129.903793 -75.000000
416 135.145294 -65.082603
417 139.631104 -54.801201
418 143.335907 -44.213299
419 146.239197 -33.378101
420 148.324600 -22.356300
421 149.580597 -11.209500
422 180.000000 0.000000
423 179.496704 13.451400
424 177.989502 26.827600
425 175.487000 40.053799
426 172.003098 53.055901
427 167.557297 65.761398
428 162.174393 78.099098
429 155.884598 90.000000
430 148.723007 101.397598
431 140.729706 112.228203
432 131.949295 122.431099
433 122.431099 131.949295
434 112.228203 140.729706
435 101.397598 148.723007
436 90.000000 155.884598
437 78.099098 162.174393
438 65.761398 167.557297
439 53.055901 172.003098
440 40.053799 175.487000
441 26.827600 177.989502
442 13.451400 179.496704
443 0.000000 180.000000
444 -13.451400 179.496704
445 -26.827600 177.989502
446 -40.053799 175.487000
447 -53.055901 172.003098
448 -65.761398 167.557297
449 -78.099098 162.174393
450 -90.000000 155.884598
451 -101.397598 148.723007
452 -112.228203 140.729706
453 -122.431099 131.949295
454 -131.949295 122.431099
455 -140.729706 112.228203
456 -148.723007 101.397598
457 -155.884598 90.000000
458 -162.174393 78.099098
459 -167.557297 65.761398
460 -172.003098 53.055901
461 -175.487000 40.053799
462 -177.989502 26.827600
463 -179.496704 13.451400
464 -180.000000 0.000000
465 -179.496704 -13.451400
466 -177.989502 -26.827600
467 -175.487000 -40.053799
468 -172.003098 -53.055901
469 -167.557297 -65.761398
470 -162.174393 -78.099098
471 -155.884598 -90.000000
472 -148.723007 -101.397598
473 -140.729706 -112.228203
474 -131.949295 -122.431099
475 -122.431099 -131.949295
476 -112.228203 -140.729706
477 -101.397598 -148.723007
478 -90.000000 -155.884598
479 -78.099098 -162.174393
480 -65.761398 -167.557297
481 -53.055901 -172.003098
482 -40.053799 -175.487000
483 -26.827600 -177.989502
484 -13.451400 -179.496704
485 -0.000000 -180.000000
486 13.451400 -179.496704
487 26.827600 -177.989502
488 40.053799 -175.487000
489 53.055901 -172.003098
490 65.761398 -167.557297
491 78.099098 -162.174393
492 90.000000 -155.884598
493 101.397598 -148.723007
494 112.228203 -140.729706
495 122.431099 -131.949295
496 131.949295 -122.431099
497 140.729706 -112.228203
498 148.723007 -101.397598
499 155.884598 -90.000000
500 162.174393 -78.099098
501 167.557297 -65.761398
502 172.003098 -53.055901
503 175.487000 -40.053799
504 177.989502 -26.827600
505 179.496704 -13.451400
506 210.000000 0.000000
507 209.412796 15.693300
508 207.654495 31.298901
509 204.734894 46.729401
510 200.670303 61.898602
511 195.483505 76.721603
512 189.203506 91.115601
513 181.865295 105.000000
514 173.510101 118.297203
515 164.184601 130.932907
516 153.940903 142.836304
517 142.836304 153.940903
518 130.932907 164.184601
519 118.297203 173.510101
520 105.000000 181.865295
521 91.115601 189.203506
522 76.721603 195.483505
523 61.898602 200.670303
524 46.729401 204.734894
525 31.298901 207.654495
526 15.693300 209.412796
527 0.000000 210.000000
528 -15.693300 209.412796
529 -31.298901 207.654495
530 -46.729401 204.734894
531 -61.898602 200.670303
532 -76.721603 195.483505
533 -91.115601 189.203506
534 -105.000000 181.865295
535 -118.297203 173.510101
536 -130.932907 164.184601
537 -142.836304 153.940903
538 -153.940903 142.836304
539 -164.184601 130.932907
540 -173.510101 118.297203
541 -181.865295 105.000000
542 -189.203506 91.115601
543 -195.483505 76.721603
544 -200.670303 61.898602
545 -204.734894 46.729401
546 -207.654495 31.298901
547 -209.412796 15.693300
548 -210.000000 0.000000
549 -209.412796 -15.693300
550 -207.654495 -31.298901
551 -204.734894 -46.729401
552 -200.670303 -61.898602
553 -195.483505 -76.721603
554 -189.203506 -91.115601
555 -181.865295 -105.000000
556 -173.510101 -118.297203
557 -164.184601 -130.932907
558 -153.940903 -142.836304
559 -142.836304 -153.940903
560 -130.932907 -164.184601
561 -118.297203 -173.510101
562 -105.000000 -181.865295
563 -91.115601 -189.203506
564 -76.721603 -195.483505
565 -61.898602 -200.670303
566 -46.729401 -204.734894
567 -31.298901 -207.654495
568 -15.693300 -209.412796
569 -0.000000 -210.000000
570 15.693300 -209.412796
571 31.298901 -207.654495
572 46.729401 -204.734894
573 61.898602 -200.670303
574 76.721603 -195.483505
575 91.115601 -189.203506
576 105.000000 -181.865295
577 118.297203 -173.510101
578 130.932907 -164.184601
579 142.836304 -153.940903
580 153.940903 -142.836304
581 164.184601 -130.932907
582 173.510101 -118.297203
583 181.865295 -105.000000
584 189.203506 -91.115601
585 195.483505 -76.721603
586 200.670303 -61.898602
587 204.734894 -46.729401
588 207.654495 -31.298901
589 209.412796 -15.693300
590 240.000000 0.000000
591 239.328903 17.935200
592 237.319397 35.770100
593 233.982697 53.404999
594 229.337494 70.741203
595 223.409698 87.681801
596 216.232498 104.132103
597 207.846100 120.000000
598 198.297302 135.196793
599 187.639603 149.637604
600 175.932404 163.241501
601 163.241501 175.932404
602 149.637604 187.639603
603 135.196793 198.297302
604 120.000000 207.846100
605 104.132103 216.232498
606 87.681801 223.409698
607 70.741203 229.337494
608 53.404999 233.982697
609 35.770100 237.319397
610 17.935200 239.328903
611 0.000000 240.000000
612 -17.935200 239.328903
613 -35.770100 237.319397
614 -53.404999 233.982697
615 -70.741203 229.337494
616 -87.681801 223.409698
617 -104.132103 216.232498
618 -120.000000 207.846100
619 -135.196793 198.297302
620 -149.637604 187.639603
621 -163.241501 175.932404
622 -175.932404 163.241501
623 -187.639603 149.637604
624 -198.297302 135.196793
625 -207.846100 120.000000
626 -216.232498 104.132103
627 -223.409698 87.681801
628 -229.337494 70.741203
629 -233.982697 53.404999
630 -237.319397 35.770100
631 -239.328903 17.935200
632 -240.000000 0.000000
633 -239.328903 -17.935200
634 -237.319397 -35.770100
635 -233.982697 -53.404999
636 -229.337494 -70.741203
637 -223.409698 -87.681801
638 -216.232498 -104.132103
639 -207.846100 -120.000000
640 -198.297302 -135.196793
641 -187.639603 -149.637604
642 -175.932404 -163.241501
643 -163.241501 -175.932404
644 -149.637604 -187.639603
645 -135.196793 -198.297302
646 -120.000000 -207.846100
647 -104.132103 -216.232498
648 -87.681801 -223.409698
649 -70.741203 -229.337494
650 -53.404999 -233.982697
651 -35.770100 -237.319397
652 -17.935200 -239.328903
653 -0.000000 -240.000000
654 17.935200 -239.328903
655 35.770100 -237.319397
656 53.404999 -233.982697
657 70.741203 -229.337494
658 87.681801 -223.409698
659 104.132103 -216.232498
660 120.000000 -207.846100
661 135.196793 -198.297302
662 149.637604 -187.639603
663 163.241501 -175.932404
664 175.932404 -163.241501
665 187.639603 -149.637604
666 198.297302 -135.196793
667 207.846100 -120.000000
668 216.232498 -104.132103
669 223.409698 -87.681801
670 229.337494 -70.741203
671 233.982697 -53.404999
672 237.319397 -35.770100
673 239.328903 -17.935200
674 270.000000 0.000000
675 269.244995 20.177099
676 266.984314 40.241402
677 263.230499 60.080700
678 258.004700 79.583900
679 251.335907 98.642097
680 243.261597 117.148598
681 233.826904 135.000000
682 223.084503 152.096405
683 211.094498 168.342194
684 197.923996 183.646606
685 183.646606 197.923996
686 168.342194 211.094498
687 152.096405 223.084503
688 135.000000 233.826904
689 117.148598 243.261597
690 98.642097 251.335907
691 79.583900 258.004700
692 60.080700 263.230499
693 40.241402 266.984314
694 20.177099 269.244995
695 0.000000 270.000000
696 -20.177099 269.244995
697 -40.241402 266.984314
698 -60.080700 263.230499
699 -79.583900 258.004700
700 -98.642097 251.335907
701 -117.148598 243.261597
702 -135.000000 233.826904
703 -152.096405 223.084503
704 -168.342194 211.094498
705 -183.646606 197.923996
706 -197.923996 183.646606
707 -211.094498 168.342194
708 -223.084503 152.096405
709 -233.826904 135.000000
710 -243.261597 117.148598
711 -251.335907 98.642097
712 -258.004700 79.583900
713 -263.230499 60.080700
714 -266.984314 40.241402
715 -269.244995 20.177099
716 -270.000000 0.000000
717 -269.244995 -20.177099
718 -266.984314 -40.241402
719 -263.230499 -60.080700
720 -258.004700 -79.583900
721 -251.335907 -98.642097
722 -243.261597 -117.148598
723 -233.826904 -135.000000
724 -223.084503 -152.096405
725 -211.094498 -168.342194
726 -197.923996 -183.646606
727 -183.646606 -197.923996
728 -168.342194 -211.094498
729 -152.096405 -223.084503
730 -135.000000 -233.826904
731 -117.148598 -243.261597
732 -98.642097 -251.335907
733 -79.583900 -258.004700
734 -60.080700 -263.230499
735 -40.241402 -266.984314
736 -20.177099 -269.244995
737 -0.000000 -270.000000
738 20.177099 -269.244995
739 40.241402 -266.984314
740 60.080700 -263.230499
741 79.583900 -258.004700
742 98.642097 -251.335907
743 117.148598 -243.261597
744 135.000000 -233.826904
745 152.096405 -223.084503
746 168.342194 -211.094498
747 183.646606 -197.923996
748 197.923996 -183.646606
749 211.094498 -168.342194
750 223.084503 -152.096405
751 233.826904 -135.000000
752 243.261597 -117.148598
753 251.335907 -98.642097
754 258.004700 -79.583900
755 263.230499 -60.080700
756 266.984314 -40.241402
757 269.244995 -20.177099
758 300.000000 0.000000
759 299.161102 22.419001
760 296.649200 44.712700
761 292.478394 66.756302
762 286.671814 88.426598
763 279.262085 109.602303
764 270.290710 130.165100
765 259.807587 150.000000
766 247.871597 168.996002
767 234.549393 187.046906
768 219.915604 204.051804
769 204.051804 219.915604
770 187.046906 234.549393
771 168.996002 247.871597
772 150.000000 259.807587
773 130.165100 270.290710
774 109.602303 279.262085
775 88.426598 286.671814
776 66.756302 292.478394
777 44.712700 296.649200
778 22.419001 299.161102
779 0.000000 300.000000
780 -22.419001 299.161102
781 -44.712700 296.649200
782 -66.756302 292.478394
783 -88.426598 286.671814
784 -109.602303 279.262085
785 -130.165100 270.290710
786 -150.000000 259.807587
787 -168.996002 247.871597
788 -187.046906 234.549393
789 -204.051804 219.915604
790 -219.915604 204.051804
791 -234.549393 187.046906
792 -247.871597 168.996002
793 -259.807587 150.000000
794 -270.290710 130.165100
795 -279.262085 109.602303
796 -286.671814 88.426598
797 -292.478394 66.756302
798 -296.649200 44.712700
799 -299.161102 22.419001
800 -300.000000 0.000000
801 -299.161102 -22.419001
802 -296.649200 -44.712700
803 -292.478394 -66.756302
804 -286.671814 -88.426598
805 -279.262085 -109.602303
806 -270.290710 -130.165100
807 -259.807587 -150.000000
808 -247.871597 -168.996002
809 -234.549393 -187.046906
810 -219.915604 -204.051804
811 -204.051804 -219.915604
812 -187.046906 -234.549393
813 -168.996002 -247.871597
814 -150.000000 -259.807587
815 -130.165100 -270.290710
816 -109.602303 -279.262085
817 -88.426598 -286.671814
818 -66.756302 -292.478394
819 -44.712700 -296.649200
820 -22.419001 -299.161102
821 -0.000000 -300.000000
822 22.419001 -299.161102
823 44.712700 -296.649200
824 66.756302 -292.478394
825 88.426598 -286.671814
826 109.602303 -279.262085
827 130.165100 -270.290710
828 150.000000 -259.807587
829 168.996002 -247.871597
830 187.046906 -234.549393
831 204.051804 -219.915604
832 219.915604 -204.051804
833 234.549393 -187.046906
834 247.871597 -168.996002
835 259.807587 -150.000000
836 270.290710 -130.165100
837 279.262085 -109.602303
838 286.671814 -88.426598
839 292.478394 -66.756302
840 296.649200 -44.712700
841 299.161102 -22.419001
GVRP_SET_SECTION 
 1 758  759  841 -1
 2  799  798  800 -1
 3  820  819  821 -1
 4  778  694  777  779 -1
 5  75  2  64  65  66  67  68  69  70  71  72  73  74  76  77  78  79  80  81  82  83  84  85  156  157  158  159  160  161  162 -1
 6  831  830  832 -1
 7  768  767  769 -1
 8  788  787  789 -1
 9  809  808  810 -1
 10  363  361  362  364  365 -1
 11  384  382  383  385  386  468 -1
 12  347  345  346  348  349  431  432 -1
 13  489  404  405  488  490  491  573 -1
 14  501  499  500  502  503  585 -1
 15  479  394  395  478  480  481  562  563 -1
 16  541  540  542 -1
 17  605  521  604  606 -1
 18  763  762  764 -1
 19  783  699  782  784 -1
 20  804  803  805 -1
 21  814  813  815 -1
 22  825  824  826 -1
 23  836  835  837 -1
 24  205  201  202  203  204  206  207  208  209 -1
 25  508  424  507  509  592 -1
 26  794  793  795 -1
 27  187  184  185  186  188  189  190  191  270  271  272 -1
 28  224  139  140  220  221  222  223  225  226  227  228  307  308 -1
 29  579  494  495  496  578  580 -1
 30  327  243  244  324  325  326  328  329  330  411 -1
 31  526  525  527 -1
 32  547  545  546  548 -1
 33  557  556  558  559 -1
 34  255  254  256  257  336  337  338 -1
 35  535  534  536 -1
 36  568  567  569 -1
 37  317  233  315  316  318  319  320  401 -1
 38  597  596  598 -1
 39  672  671  673 -1
 40  707  706  708 -1
 41  733  732  734 -1
 42  744  743  745 -1
 43  771  770  772 -1
 44  775  774  776 -1
 45  369  367  368  370  371  452  453 -1
 46  377  375  376  378  379  462 -1
 47  517  516  518 -1
 48  614  530  613  615  698 -1
 49  635  634  636  719 -1
 50  645  561  644  646  729 -1
 51  667  666  668  751 -1
 52  839  755  838  840 -1
 53  353  351  352  354  355 -1
 54  656  572  655  657  740 -1
 55  93  89  90  91  92  94  95  96  97  98  99  100 -1
 56  390  388  389  391  392 -1
 57  30  22  23  24  25  26  27  28  29  31  32  33  34  35  36  37  38  39  40  41  114  115  116  117 -1
 58  196  192  193  194  195  197  198  199  200 -1
 59  214  210  211  212  213  215  216  217  218  299 -1
 60  628  544  627  629 -1
 61  358  356  357  359  360 -1
 62  249  245  246  247  248  250  251  252  253  332  333  334 -1
 63  638  554  637  639 -1
 64  427  425  426  428  429  511 -1
 65  505  422  423  504  589 -1
 66  676  675  677 -1
 67  701  700  702 -1
 68  238  154  155  234  235  236  237  239  240  241  242  321  322  323 -1
 69  696  695  697 -1
 70  717  716  718 -1
 71  727  726  728 -1
 72  738  737  739 -1
 73  749  748  750 -1
 74  147  141  142  143  144  145  146  148  149  150  151  152  153  230  231  232 -1
 75  538  454  455  537  539  622 -1
 76  576  492  574  575  577 -1
 77  373  372  374  456 -1
 78  523  522  524  607 -1
 79  532  531  533  616 -1
 80  594  510  593  595  678 -1
 81  765  766 -1
 82  773 -1
 83  796  797 -1
 84  806  807 -1
 85  52  42  43  44  45  46  47  48  49  50  51  53  54  55  56  57  58  59  60  61  62  63  133  134  135  136  137  138 -1
 86  312  229  309  310  311  313  314 -1
 87  260  258  259  261  262  263  344 -1
 88  266  264  265  267  268  269  350 -1
 89  303  219  300  301  302  304  305  306  387 -1
 90  408  406  407  409  410  493 -1
 91  414  331  412  413  415  416  497  498 -1
 92  465  380  381  463  464  466  467  549 -1
 93  471  469  470  472  473  555 -1
 94  565  564  566 -1
 95  486  402  403  484  485  487  570  571 -1
 96  419  335  417  418  420  421 -1
 97  435  433  434  436  437  519  520 -1
 98  444  442  443  445  446  528  529 -1
 99  459  457  458  460  461  543 -1
 100  476  393  474  475  477  560 -1
 101  107  101  102  103  104  105  106  108  109  110  111  112  113 -1
 102  125  118  119  120  121  122  123  124  126  127  128  129  130  131  132 -1
 103  683  682  684 -1
 104  685  686 -1
 105  692  691  693 -1
 106  703  704 -1
 107  705 -1
 108  709  710 -1
 109  714  630  713  715 -1
 110  724  640  723  725 -1
 111  731  730 -1
 112  735  736 -1
 113  742  741 -1
 114  746  747 -1
 115  753  752  754 -1
 116  761  760 -1
 117  781  780 -1
 118  786  785 -1
 119  790  791 -1
 120  792 -1
 121  802  801 -1
 122  812  811 -1
 123  816  817 -1
 124  818 -1
 125  823  822 -1
 126  827  828 -1
 127  829 -1
 128  834  833 -1
 129  276  273  274  275  277  278  279 -1
 130  283  280  281  282  284  285  366 -1
 131  295  293  294  296  297  298 -1
 132  341  339  340  342  343 -1
 133  398  396  397  399  400  482  483 -1
 134  590  506  591 -1
 135  603  602 -1
 136  670  669 -1
 137  680  679  681 -1
 138  688  687  689 -1
 139  690 -1
 140  711  712 -1
 141  721  720  722 -1
 142  757  674  756 -1
 143  169  86  87  88  163  164  165  166  167  168 -1
 144  14  3  4  5  6  7  8  9  10  11  12  13  15  16  17  18  19  20  21 -1
 145  173  170  171  172  174  175  176 -1
 146  180  177  178  179  181  182  183 -1
 147  287  286  288  289 -1
 148  291  290  292 -1
 149  514  430  512  513  515 -1
 150  552  550  551  553 -1
 151  582  581  583  584 -1
 152  587  586  588 -1
 153  600  599  601 -1
 154  609  608  610 -1
 155  611  612 -1
 156  618  617  619 -1
 157  620  621 -1
 158  624  623  625 -1
 159  626 -1
 160  632  631  633 -1
 161  642  641  643 -1
 162  648  647  649 -1
 163  650  651 -1
 164  653  652  654 -1
 165  659  658  660 -1
 166  661  662 -1
 167  664  663  665 -1
 168  440  438  439  441 -1
 169  449  447  448  450  451 -1
 DEMAND_SECTION
 1 50 
 2 70 
 3 70 
 4 60 
 5 580 
 6 70 
 7 70 
 8 70 
 9 50 
 10 90 
 11 120 
 12 150 
 13 130 
 14 120 
 15 160 
 16 50 
 17 60 
 18 70 
 19 100 
 20 70 
 21 50 
 22 50 
 23 70 
 24 170 
 25 130 
 26 50 
 27 230 
 28 310 
 29 140 
 30 220 
 31 50 
 32 80 
 33 80 
 34 130 
 35 70 
 36 70 
 37 160 
 38 50 
 39 70 
 40 70 
 41 50 
 42 70 
 43 70 
 44 70 
 45 150 
 46 120 
 47 50 
 48 70 
 49 100 
 50 70 
 51 100 
 52 100 
 53 110 
 54 130 
 55 240 
 56 110 
 57 480 
 58 190 
 59 200 
 60 100 
 61 110 
 62 220 
 63 60 
 64 120 
 65 90 
 66 70 
 67 50 
 68 260 
 69 70 
 70 50 
 71 70 
 72 50 
 73 50 
 74 320 
 75 100 
 76 110 
 77 80 
 78 100 
 79 100 
 80 70 
 81 20 
 82 10 
 83 40 
 84 40 
 85 540 
 86 110 
 87 150 
 88 130 
 89 190 
 90 100 
 91 160 
 92 160 
 93 120 
 94 50 
 95 160 
 96 120 
 97 150 
 98 130 
 99 120 
 100 120 
 101 250 
 102 310 
 103 70 
 104 20 
 105 70 
 106 60 
 107 10 
 108 20 
 109 60 
 110 100 
 111 40 
 112 60 
 113 20 
 114 40 
 115 50 
 116 40 
 117 40 
 118 20 
 119 40 
 120 30 
 121 20 
 122 60 
 123 40 
 124 10 
 125 40 
 126 60 
 127 10 
 128 20 
 129 130 
 130 130 
 131 100 
 132 110 
 133 150 
 134 50 
 135 40 
 136 20 
 137 70 
 138 70 
 139 10 
 140 60 
 141 50 
 142 50 
 143 220 
 144 390 
 145 150 
 146 130 
 147 80 
 148 70 
 149 90 
 150 80 
 151 80 
 152 70 
 153 70 
 154 50 
 155 60 
 156 50 
 157 40 
 158 70 
 159 10 
 160 70 
 161 50 
 162 70 
 163 40 
 164 50 
 165 70 
 166 20 
 167 70 
 168 80 
 169 110 
EOF
